letting n_nurses=25
letting n_days=7
letting n_shift_types=4
letting max_covers=13
letting t_covers=87
letting covers=[11,0,8,0,10,8,0,0,11,13,0,0,7,10,0,0,3,1,0,0,2,0,1,0,1,1,0,0]
letting prefes=[3,4,1,2,3,1,4,2,3,2,4,1,2,1,4,1,4,2,3,1,1,1,3,2,2,3,1,1,1,4,3,2,3,1,2,1,4,3,1,2,2,1,3,4,4,2,1,1,1,1,3,2,3,4,1,2,4,1,3,2,2,1,4,4,4,2,1,3,2,1,1,3,3,2,1,4,4,1,3,2,4,3,1,2,3,4,1,2,2,3,1,4,4,3,1,2,2,3,1,1,3,1,2,1,4,2,1,1,1,3,1,2,2,1,1,3,2,3,1,4,4,2,1,3,2,1,3,4,4,2,3,1,4,3,1,2,2,1,3,1,4,1,3,3,3,1,1,2,4,2,1,1,1,1,3,1,1,2,1,1,1,2,3,4,2,1,1,1,1,1,1,3,2,3,4,1,4,1,2,1,4,1,3,1,1,2,3,3,4,1,2,2,4,2,3,1,1,4,3,2,1,1,4,2,1,2,1,1,2,1,1,4,1,4,3,1,3,2,1,4,2,3,1,1,1,4,1,3,2,3,1,4,1,3,4,1,2,1,3,4,4,1,3,1,4,2,3,1,2,1,3,1,1,3,3,3,1,1,4,2,1,2,4,3,1,1,2,4,1,4,3,1,3,2,1,4,1,1,1,2,3,4,1,2,1,1,2,4,1,2,1,3,1,4,1,2,4,1,3,1,4,1,2,1,1,3,1,2,1,3,1,2,1,1,4,4,1,2,4,3,1,2,3,4,1,4,1,1,1,2,3,4,2,1,1,4,1,1,1,3,2,1,1,2,1,1,4,3,2,1,1,4,1,2,3,4,4,2,1,2,2,3,1,4,1,1,3,3,1,4,4,2,1,1,4,2,1,1,1,4,1,4,1,3,1,1,1,4,1,3,4,2,3,4,1,2,1,2,1,4,1,1,2,3,4,2,3,1,1,4,2,3,1,2,1,2,1,2,4,1,1,4,1,3,1,3,1,4,1,2,4,1,3,4,1,1,4,2,3,1,3,4,1,2,1,3,4,1,3,4,1,2,2,1,4,1,1,2,3,1,1,1,3,4,4,2,1,1,1,4,1,2,1,3,1,1,1,4,3,3,1,3,1,2,1,2,1,3,1,1,1,4,1,4,1,2,1,2,3,4,1,1,4,2,3,1,4,1,1,3,4,2,2,1,4,3,1,1,1,2,1,4,3,1,1,1,1,4,1,1,4,2,3,1,3,1,2,1,4,4,4,1,1,3,1,3,2,4,4,2,1,3,1,1,1,2,1,3,4,1,3,2,4,1,2,1,1,4,4,1,1,1,1,3,1,1,1,4,1,3,1,2,3,4,1,3,4,2,1,4,4,3,1,3,1,2,4,2,1,3,1,2,3,4,3,2,4,1,4,1,3,2,2,1,4,1,3,1,3,2,1,4,4,2,1,1,4,3,2,4,1,1,4,2,1,3,4,1,1,2,2,1,4,1,3,4,1,2,2,3,1,4,1,1,1,3,2,1,1,1,1,4,1,1,1,2,1,4,2,1,1,4,1,4,3,2,1,3,2,4,3,1,1,1,1,1,3,4,1,4,1,3,1,1,4,4,1,1,4,2]
letting ub =  200
